p tw 110 121
1 2
2 23
3 14
4 5
5 6
5 10
6 7
7 8
8 9
9 10
10 11
11 12
12 13
14 15
15 16
16 17
17 18
18 19
19 20
20 21
21 22
22 24
23 34
24 25
25 26
26 27
26 49
27 28
28 29
29 30
30 31
31 32
32 33
33 35
34 45
35 36
36 37
37 38
37 43
38 39
39 40
40 41
41 42
42 43
43 44
44 46
45 56
46 47
47 48
47 49
48 12
49 50
50 51
51 52
52 53
53 54
54 55
55 57
56 67
57 58
57 62
58 59
59 60
60 61
61 52
62 63
63 64
63 68
64 65
65 66
66 68
66 70
67 78
68 69
69 12
70 71
71 72
72 73
73 74
74 75
75 76
76 77
77 79
78 89
78 100
79 80
79 4
80 81
81 82
82 83
83 84
84 85
85 86
86 87
87 88
88 90
89 12
90 91
91 92
91 99
92 93
93 94
94 95
95 96
96 97
97 98
98 99
99 101
100 3
101 102
102 103
103 104
103 105
104 12
105 106
106 107
106 10
107 108
108 109
109 110
110 10
